(declare-fun q_0 () (_ BitVec 4))
(declare-fun q_1 () (_ BitVec 4))
(declare-fun q_2 () (_ BitVec 4))
(declare-fun q_3 () (_ BitVec 4))
(declare-fun q_4 () (_ BitVec 4))
(declare-fun q_5 () (_ BitVec 4))
(declare-fun q_6 () (_ BitVec 4))
(declare-fun q_7 () (_ BitVec 4))
(declare-fun q_8 () (_ BitVec 4))
(assert (bvult q_0 #x9))
(assert (bvult q_1 #x9))
(assert (bvult q_2 #x9))
(assert (bvult q_3 #x9))
(assert (bvult q_4 #x9))
(assert (bvult q_5 #x9))
(assert (bvult q_6 #x9))
(assert (bvult q_7 #x9))
(assert (bvult q_8 #x9))
(assert (distinct q_0 q_1 q_2 q_3 q_4 q_5 q_6 q_7 q_8))
(assert (and (distinct (bvsub q_0 q_1) #x1) (distinct (bvsub q_1 q_0) #x1)))
(assert (and (distinct (bvsub q_1 q_2) #x1) (distinct (bvsub q_2 q_1) #x1)))
(assert (and (distinct (bvsub q_2 q_3) #x1) (distinct (bvsub q_3 q_2) #x1)))
(assert (and (distinct (bvsub q_3 q_4) #x1) (distinct (bvsub q_4 q_3) #x1)))
(assert (and (distinct (bvsub q_4 q_5) #x1) (distinct (bvsub q_5 q_4) #x1)))
(assert (and (distinct (bvsub q_5 q_6) #x1) (distinct (bvsub q_6 q_5) #x1)))
(assert (and (distinct (bvsub q_6 q_7) #x1) (distinct (bvsub q_7 q_6) #x1)))
(assert (and (distinct (bvsub q_7 q_8) #x1) (distinct (bvsub q_8 q_7) #x1)))
(assert (or (= q_0 #x0)
    (= q_0 #x1)
    (= q_0 #x2)
    (= q_0 #x3)
    (= q_0 #x4)
    (= q_0 #x5)
    (= q_0 #x6)
    (= q_0 #x7)
    (= q_0 #x8)
    (= q_1 #x0)
    (= q_1 #x1)
    (= q_2 #x0)
    (= q_3 #x0)
    (= q_4 #x0)
    (= q_5 #x0)
    (= q_6 #x0)
    (= q_7 #x0)
    (= q_8 #x0)
    (= q_8 #x1)))
(assert (or (= q_1 #x2)
    (= q_2 #x1)
    (= q_2 #x2)
    (= q_3 #x1)
    (= q_4 #x1)
    (= q_5 #x1)
    (= q_6 #x1)
    (= q_6 #x2)
    (= q_7 #x1)
    (= q_7 #x2)
    (= q_8 #x2)
    (= q_8 #x3)))
(assert (or (= q_1 #x3) (= q_1 #x4) (= q_1 #x5) (= q_2 #x4) (= q_3 #x4)))
(assert (or (= q_2 #x3)
    (= q_3 #x2)
    (= q_3 #x3)
    (= q_4 #x2)
    (= q_5 #x2)
    (= q_5 #x3)
    (= q_6 #x3)))
(assert (or (= q_7 #x3) (= q_7 #x4) (= q_7 #x5) (= q_8 #x4)))
(assert (or (= q_4 #x3) (= q_4 #x4) (= q_4 #x5) (= q_5 #x4) (= q_6 #x4)))
(assert (or (= q_3 #x5)
    (= q_3 #x6)
    (= q_4 #x6)
    (= q_4 #x7)
    (= q_5 #x5)
    (= q_5 #x6)
    (= q_6 #x5)))
(assert (or (= q_6 #x6) (= q_7 #x6) (= q_7 #x7) (= q_8 #x5) (= q_8 #x6)))
(assert (or (= q_1 #x6)
    (= q_1 #x7)
    (= q_1 #x8)
    (= q_2 #x5)
    (= q_2 #x6)
    (= q_2 #x7)
    (= q_2 #x8)
    (= q_3 #x7)
    (= q_3 #x8)
    (= q_4 #x8)
    (= q_5 #x7)
    (= q_5 #x8)
    (= q_6 #x7)
    (= q_6 #x8)
    (= q_7 #x8)
    (= q_8 #x7)
    (= q_8 #x8)))

(check-sat)
(get-model)
